33 500
4 187
3 103
5 177
2 161
4 17
3 187
3 188
3 103
4 129
10 188
5 181
7 177
2 200
2 103
10 180
11 121
7 161
7 194
7 200
11 148
4 116
11 190
3 121
6 116
6 181
6 103
2 148
8 129
6 190
11 194
7 134
5 180
7 134
